benchmarks/bfuzz0/10369221331055412067193812601060597150.smt2
(set-logic QF_FP)
(declare-const x0 (_ FloatingPoint 8 24))
(declare-const x1 (_ FloatingPoint 8 24))
(declare-const x2 (_ FloatingPoint 8 24))
(declare-const x3 (_ FloatingPoint 8 24))
(declare-const x4 (_ FloatingPoint 8 24))
(declare-const x5 (_ FloatingPoint 8 24))
(declare-const x6 (_ FloatingPoint 8 24))
(declare-const x7 (_ FloatingPoint 8 24))
(declare-const x8 (_ FloatingPoint 8 24))
(declare-const x9 (_ FloatingPoint 8 24))
(declare-const x10 (_ FloatingPoint 8 24))
(declare-const x11 (_ FloatingPoint 8 24))
(declare-const x12 (_ FloatingPoint 8 24))
(declare-const x13 (_ FloatingPoint 8 24))
(declare-const x14 (_ FloatingPoint 8 24))
(declare-const x15 (_ FloatingPoint 8 24))
(declare-const x16 (_ FloatingPoint 8 24))
(declare-const x17 (_ FloatingPoint 8 24))
(declare-const x18 (_ FloatingPoint 8 24))
(declare-const x19 (_ FloatingPoint 8 24))
(declare-const x20 (_ FloatingPoint 8 24))
(declare-const x21 (_ FloatingPoint 8 24))
(declare-const x22 (_ FloatingPoint 8 24))
(assert (fp.lt (fp.div RNE (fp.sub RNE x9 x9) (fp.mul RNE x8 x7)) (fp.add RNE (fp.mul RNE x7 x19) (fp.div RNE x2 x7))))
(assert (fp.eq (fp.neg (fp.mul RNE x13 x14)) (fp.mul RNE (fp.add RNE x11 x4) (fp.sub RNE x1 x9))))
(assert (fp.geq (fp.div RNE (fp.mul RNE x5 x7) (fp.mul RNE x18 x14)) (fp.add RNE (fp.neg x13) (fp.mul RNE x13 x7))))
(check-sat)
