db/data/10369221331055412067193812601060597150.z3.out
sat
-------------------
199.215357069
